1
42250.00 31150.00 33500.00  49550.00
10
515 656 345  259 139
359 138 152  199 46
363 140 601  90 48
288 636 189  257 150
730 27 791  170 287
82 744 652  276 136
211 720 237  91 113
164 718 198  48 208
324 604 144  213 72
521 756 195  80 109
